config:eval_tsp="2022-12-09 08:47:05"
config:arch=arch5
config:num_train_worker=3
config:num_sample_worker=1
config:sample_type=khop2
config:root_path=/nvme/graph-learning-copy/samgraph/
config:dataset=mag240m-homo
config:pipeline=False
config:cache_policy=coll_cache_asymm_link
config:cache_percentage=0.01
config:num_epoch=4
config:batch_size=2000
config:num_hidden=256
config:max_sampling_jobs=1
config:max_copying_jobs=1
config:barriered_epoch=1
config:presample_epoch=2
config:omp_thread_num=13
config:unsupervised=True
config:amp=True
config:rolling=0
config:fanout=[25, 10]
config:lr=0.003
config:dropout=0.5
config:single_gpu=False
config:max_num_step=1000
config:validate_configs=False
config:report_acc=0
config:dataset_path=/nvme/graph-learning-copy/samgraph/mag240m-homo
config:torch_thread_num=13
config:train_workers=['cuda:0', 'cuda:1', 'cuda:2']
config:sample_workers=['cuda:3']
config:num_fanout=2
config:num_layer=2
config:_run_mode=RunMode.FGNN
config:_log_level=warn
config:_profile_level=3
config:_empty_feat=25
config:_arch=5
config:_sample_type=5
config:_cache_policy=13
test_result:init:input_scale_factor=1.10488
0 :  {link #0 : 1}, {link #1 : 2},
1 :  {link #0 : 2}, {link #1 : 0},
2 :  {link #0 : 0}, {link #1 : 1},
0 :  {link #0 : 1}, {link #1 : 2},
1 :  {link #0 : 2}, {link #1 : 0},
2 :  {link #0 : 0}, {link #1 : 1},
0 :  {link #0 : 1}, {link #1 : 2},
1 :  {link #0 : 2}, {link #1 : 0},
2 :  {link #0 : 0}, {link #1 : 1},
Set parameter WLSAccessID
Set parameter WLSSecret
Set parameter LicenseID
Set parameter TimeLimit to value 200
Set parameter MIPGap to value 0.05
Set parameter GomoryPasses to value 0
Set parameter Aggregate to value 0
Set parameter LogFile to value "cppsolver.log"
Set parameter Threads to value 26
Academic license - for non-commercial use only - registered to xiaoniu.sxn@sjtu.edu.cn
Gurobi Optimizer version 9.5.1 build v9.5.1rc2 (linux64)
Thread count: 40 physical cores, 80 logical processors, using up to 26 threads
Academic license - for non-commercial use only - registered to xiaoniu.sxn@sjtu.edu.cn
Optimize a model with 21393 rows, 10184 columns and 64149 nonzeros
Model fingerprint: 0xae501a91
Variable types: 4 continuous, 10180 integer (10180 binary)
Coefficient statistics:
  Matrix range     [7e-04, 5e+02]
  Objective range  [1e+00, 1e+00]
  Bounds range     [1e+00, 1e+00]
  RHS range        [1e+00, 5e+02]
Found heuristic solution: objective 22811.915694
Presolve removed 12218 rows and 0 columns
Presolve time: 0.09s
Presolved: 9175 rows, 10184 columns, 37679 nonzeros
Found heuristic solution: objective 22811.915680
Variable types: 4 continuous, 10180 integer (10180 binary)

Root relaxation: objective 1.458791e+04, 7655 iterations, 0.06 seconds (0.04 work units)

    Nodes    |    Current Node    |     Objective Bounds      |     Work
 Expl Unexpl |  Obj  Depth IntInf | Incumbent    BestBd   Gap | It/Node Time

     0     0 14587.9068    0   10 22811.9157 14587.9068  36.1%     -    0s
H    0     0                    14611.891239 14587.9068  0.16%     -    0s

Explored 1 nodes (10793 simplex iterations) in 0.74 seconds (0.43 work units)
Thread count was 26 (of 80 available processors)

Solution count 3: 14611.9 22811.9 22811.9 

Optimal solution found (tolerance 5.00e-02)
Best objective 1.461189123856e+04, best bound 1.458790678086e+04, gap 0.1641%
coll_cache:optimal_local_rate=0.105918,0.144322,0.146662,
coll_cache:optimal_remote_rate=0.290983,0.252579,0.250239,
coll_cache:optimal_cpu_rate=0.603099,0.603099,0.603099,
z=14611.9
test_result:init:feat_nbytes=375030526464
test_result:init:cache_nbytes=3785633280
test_result:init:feat_nbytes=375030526464
test_result:init:cache_nbytes=3787800576
test_result:init:feat_nbytes=375030526464
test_result:init:cache_nbytes=3787436544
[Train  Worker 1/3] Started with PID 1685(Tesla V100-SXM2-16GB)
[Train  Worker 1] run train for 4 epochs with 1002 steps
[Train  Worker 2/3] Started with PID 1690(Tesla V100-SXM2-16GB)
[Train  Worker 2] run train for 4 epochs with 1002 steps
[CUDA] cuda0: usage: 12.61 GB
[SAM] cuda0 data alloc        : 0.00 Bytes
[SAM] cuda0 workspace         : 3.08 GB
[SAM] cuda0 workspace reserve : 1.53 GB
[SAM] cuda0 total             : 3.08 GB
[Train  Worker 0/3] Started with PID 1682(Tesla V100-SXM2-16GB)
[Train  Worker 0] run train for 4 epochs with 1002 steps
Epoch 00000 | Epoch Time 33.0276 | Total Train Time(Profiler) 7.9471 | Copy Time 25.0458
[CUDA] cuda0: usage: 12.61 GB
[SAM] cuda0 data alloc        : 0.00 Bytes
[SAM] cuda0 workspace         : 3.08 GB
[SAM] cuda0 workspace reserve : 1.53 GB
[SAM] cuda0 total             : 3.08 GB
Epoch 00001 | Epoch Time 31.6953 | Total Train Time(Profiler) 6.6245 | Copy Time 25.0316
[CUDA] cuda0: usage: 12.61 GB
[SAM] cuda0 data alloc        : 0.00 Bytes
[SAM] cuda0 workspace         : 3.08 GB
[SAM] cuda0 workspace reserve : 1.53 GB
[SAM] cuda0 total             : 3.08 GB
Epoch 00002 | Epoch Time 31.5145 | Total Train Time(Profiler) 6.4914 | Copy Time 24.9907
[CUDA] cuda0: usage: 12.61 GB
[SAM] cuda0 data alloc        : 0.00 Bytes
[SAM] cuda0 workspace         : 3.08 GB
[SAM] cuda0 workspace reserve : 1.53 GB
[SAM] cuda0 total             : 3.08 GB
Epoch 00003 | Epoch Time 31.4388 | Total Train Time(Profiler) 6.4293 | Copy Time 24.9796
[Train  Worker 2] Avg Epoch Time 31.5492 | Train Total Time(Profiler) 6.5275 | Copy Time 24.9864
[Train  Worker 1] Avg Epoch Time 31.5492 | Train Total Time(Profiler) 6.5304 | Copy Time 24.9847
[Train  Worker 0] Avg Epoch Time 31.5495 | Train Total Time(Profiler) 6.5151 | Copy Time 25.0007
    [Step(average) Profiler Level 1 E3 S1001]
        L1  sample           0.003710 | send           0.000990
        L1  recv             0.000000 | copy           0.000000 | convert time 0.000000 | train  0.000000
        L1  feature nbytes 0.00 Bytes | label nbytes 0.00 Bytes
        L1  id nbytes      0.00 Bytes | graph nbytes 0.00 Bytes
        L1  miss nbytes    0.00 Bytes | remote nbytes 0.00 Bytes
        L1  num nodes          953754 | num samples     1098724
    [Step(average) Profiler Level 2 E3 S1001]
        L2  shuffle     0.000086 | core sample  0.001065 | id remap        0.002361
        L2  graph copy  0.000000 | id copy      0.000000 | cache feat copy 0.000000
        L2  last layer sample time 0.000293 | size 49774.653360
    [Step(average) Profiler Level 3 E3 S1001]
        L3  khop sample coo  0.000769 | khop sort coo      0.000000 | khop count edge     0.000037 | khop compact edge 0.000205
        L3  walk sample coo  0.000000 | walk topk total    0.000000 | walk topk step1     0.000000 | walk topk step2   0.000000
        L3  walk topk step3  0.000000 | walk topk step4    0.000000 | walk topk step5     0.000000
        L3  walk topk step6  0.000000 | walk topk step7    0.000000
        L3  remap unique     0.000186 | remap populate     0.002009 | remap mapnode       0.000000 | remap mapedge     0.000366
        L3  cache get_index  0.000000 | cache copy_index   0.000000 | cache extract_miss  0.000000
        L3  cache copy_miss  0.000000 | cache combine_miss 0.000000 | cache combine cache 0.000000 | cache combine remote 0.000000
        L3  label extract  0.000000
    [Init Profiler Level 1]
        L1  init     6.4884 | sampler init    60.2323 | trainer init 0.0000
    [Init Profiler Level 2]
        L2  load ds         9.6738 | init queue          33.3185
        L2  presample      21.8867 | build interal ds     1.8377
        L2  build cache     0.0000
    [Init Profiler Level 3]
        L3  load dataset: mmap     6.4844 | copy         3.1894
        L3  dist queue: alloc      0.0006 | pin         33.3179 | push     0.0000
        L3  presample: init        1.3006
        L3  presample: sample      7.3877 | copy         0.6063
        L3  presample: count       9.8603 | sort         1.0310
        L3  presample: reset       0.0025 | get rank     0.0895
        L3  internal: cuda ctx     1.5267 | cuda stream     0.3014
[Sample Worker 0/1] Started with PID 1680(Tesla V100-SXM2-16GB)
[Sample Worker 0] run sample for 4 epochs with 1002 steps
[Sample Worker 0] Avg Sample Total Time 4.7219 | Sampler Total Time(Profiler) 4.7100
test_result:sample_time=3.7178
test_result:get_cache_miss_index_time=0.0000
test_result:enqueue_samples_time=0.9922
test_result:epoch_time:sample_total=4.7219
[CUDA] cuda0: usage: 12.61 GB
[SAM] cuda0 data alloc        : 0.00 Bytes
[SAM] cuda0 workspace         : 3.08 GB
[SAM] cuda0 workspace reserve : 1.53 GB
[SAM] cuda0 total             : 3.08 GB
    [Step(average) Profiler Level 1 E3 S1001]
        L1  sample           0.000000 | send           0.000000
        L1  recv             0.001140 | copy           0.074822 | convert time 0.000518 | train  0.019016
        L1  feature nbytes    1.36 GB | label nbytes   15.62 KB
        L1  id nbytes      0.00 Bytes | graph nbytes 0.00 Bytes
        L1  miss nbytes     851.08 MB | remote nbytes  363.99 MB
        L1  num nodes               0 | num samples           0
    [Step(average) Profiler Level 2 E3 S1001]
        L2  shuffle     0.000000 | core sample  0.000000 | id remap        0.000000
        L2  graph copy  0.000004 | id copy      0.000000 | cache feat copy 0.073678
        L2  last layer sample time 0.000000 | size 0.000000
    [Step(average) Profiler Level 3 E3 S1001]
        L3  khop sample coo  0.000000 | khop sort coo      0.000000 | khop count edge     0.000000 | khop compact edge 0.000000
        L3  walk sample coo  0.000000 | walk topk total    0.000000 | walk topk step1     0.000000 | walk topk step2   0.000000
        L3  walk topk step3  0.000000 | walk topk step4    0.000000 | walk topk step5     0.000000
        L3  walk topk step6  0.000000 | walk topk step7    0.000000
        L3  remap unique     0.000000 | remap populate     0.000000 | remap mapnode       0.000000 | remap mapedge     0.000000
        L3  cache get_index  0.000644 | cache copy_index   0.000000 | cache extract_miss  0.000000
        L3  cache copy_miss  0.000000 | cache combine_miss 0.072445 | cache combine cache 0.000681 | cache combine remote 0.005087
        L3  label extract  0.000035
    [Step(max) Profiler Level 1 E3 S1001]
        L1  sample           0.000000 | send           0.000000
        L1  recv             0.000000 | copy           0.000000 | convert time 0.000000 | train  0.000000
        L1  feature nbytes 0.00 Bytes | label nbytes 0.00 Bytes
        L1  id nbytes      0.00 Bytes | graph nbytes    8.64 MB
        L1  miss nbytes    0.00 Bytes | remote nbytes 0.00 Bytes
        L1  num nodes               0 | num samples           0
    [Step(max) Profiler Level 2 E3 S1001]
        L2  shuffle     0.000000 | core sample  0.000000 | id remap        0.000000
        L2  graph copy  0.000000 | id copy      0.000000 | cache feat copy 0.000000
        L2  last layer sample time 0.000000 | size 0.000000
    [Step(max) Profiler Level 3 E3 S1001]
        L3  khop sample coo  0.000000 | khop sort coo      0.000000 | khop count edge     0.000000 | khop compact edge 0.000000
        L3  walk sample coo  0.000000 | walk topk total    0.000000 | walk topk step1     0.000000 | walk topk step2   0.000000
        L3  walk topk step3  0.000000 | walk topk step4    0.000000 | walk topk step5     0.000000
        L3  walk topk step6  0.000000 | walk topk step7    0.000000
        L3  remap unique     0.000000 | remap populate     0.000000 | remap mapnode       0.000000 | remap mapedge     0.000000
        L3  cache get_index  0.000000 | cache copy_index   0.000000 | cache extract_miss  0.000000
        L3  cache copy_miss  0.000000 | cache combine_miss 0.000000 | cache combine cache 0.000000 | cache combine remote 0.000000
        L3  label extract  0.000000
    [Step(min) Profiler Level 1 E3 S1001]
        L1  sample           0.000000 | send           0.000000
        L1  recv             0.000000 | copy           0.000000 | convert time 0.000000 | train  0.000000
        L1  feature nbytes 0.00 Bytes | label nbytes 0.00 Bytes
        L1  id nbytes      0.00 Bytes | graph nbytes    8.22 MB
        L1  miss nbytes    0.00 Bytes | remote nbytes 0.00 Bytes
        L1  num nodes               0 | num samples           0
    [Step(min) Profiler Level 2 E3 S1001]
        L2  shuffle     0.000000 | core sample  0.000000 | id remap        0.000000
        L2  graph copy  0.000000 | id copy      0.000000 | cache feat copy 0.000000
        L2  last layer sample time 0.000000 | size 0.000000
    [Step(min) Profiler Level 3 E3 S1001]
        L3  khop sample coo  0.000000 | khop sort coo      0.000000 | khop count edge     0.000000 | khop compact edge 0.000000
        L3  walk sample coo  0.000000 | walk topk total    0.000000 | walk topk step1     0.000000 | walk topk step2   0.000000
        L3  walk topk step3  0.000000 | walk topk step4    0.000000 | walk topk step5     0.000000
        L3  walk topk step6  0.000000 | walk topk step7    0.000000
        L3  remap unique     0.000000 | remap populate     0.000000 | remap mapnode       0.000000 | remap mapedge     0.000000
        L3  cache get_index  0.000000 | cache copy_index   0.000000 | cache extract_miss  0.000000
        L3  cache copy_miss  0.000000 | cache combine_miss 0.000000 | cache combine cache 0.000000 | cache combine remote 0.000000
        L3  label extract  0.000000
    [Init Profiler Level 1]
        L1  init     6.4884 | sampler init     0.0000 | trainer init 154.9203
    [Init Profiler Level 2]
        L2  load ds         6.4844 | init queue          33.2572
        L2  presample       0.0000 | build interal ds     1.4838
        L2  build cache   120.1794
    [Init Profiler Level 3]
        L3  load dataset: mmap     6.4844 | copy         0.0000
        L3  dist queue: alloc      0.0006 | pin         33.2565 | push     0.0000
        L3  presample: init        0.0000
        L3  presample: sample      0.0000 | copy         0.0000
        L3  presample: count       0.0000 | sort         0.0000
        L3  presample: reset       0.0000 | get rank     0.0000
        L3  internal: cuda ctx     1.4837 | cuda stream     0.0001
|===========================================================================|
|                  PyTorch CUDA memory summary, device ID 0                 |
|---------------------------------------------------------------------------|
|            CUDA OOMs: 0            |        cudaMalloc retries: 0         |
|===========================================================================|
|        Metric         | Cur Usage  | Peak Usage | Tot Alloc  | Tot Freed  |
|---------------------------------------------------------------------------|
| Allocated memory      |   35225 KB |  648825 KB |    2350 GB |    2350 GB |
|       from large pool |   25943 KB |  645890 KB |    2333 GB |    2333 GB |
|       from small pool |    9282 KB |   11611 KB |      17 GB |      17 GB |
|---------------------------------------------------------------------------|
| Active memory         |   35225 KB |  648825 KB |    2350 GB |    2350 GB |
|       from large pool |   25943 KB |  645890 KB |    2333 GB |    2333 GB |
|       from small pool |    9282 KB |   11611 KB |      17 GB |      17 GB |
|---------------------------------------------------------------------------|
| GPU reserved memory   |     772 MB |     772 MB |     772 MB |       0 B  |
|       from large pool |     756 MB |     756 MB |     756 MB |       0 B  |
|       from small pool |      16 MB |      16 MB |      16 MB |       0 B  |
|---------------------------------------------------------------------------|
| Non-releasable memory |  116326 KB |  646617 KB |    1991 GB |    1991 GB |
|       from large pool |  113321 KB |  645421 KB |    1970 GB |    1970 GB |
|       from small pool |    3005 KB |    5575 KB |      20 GB |      20 GB |
|---------------------------------------------------------------------------|
| Allocations           |      43    |      62    |  195093    |  195050    |
|       from large pool |       7    |      18    |   76155    |   76148    |
|       from small pool |      36    |      47    |  118938    |  118902    |
|---------------------------------------------------------------------------|
| Active allocs         |      44    |      62    |  195093    |  195049    |
|       from large pool |       7    |      18    |   76155    |   76148    |
|       from small pool |      37    |      47    |  118938    |  118901    |
|---------------------------------------------------------------------------|
| GPU reserved segments |      17    |      17    |      17    |       0    |
|       from large pool |       9    |       9    |       9    |       0    |
|       from small pool |       8    |       8    |       8    |       0    |
|---------------------------------------------------------------------------|
| Non-releasable allocs |      24    |      31    |   85473    |   85449    |
|       from large pool |       8    |      13    |   51827    |   51819    |
|       from small pool |      16    |      22    |   33646    |   33630    |
|---------------------------------------------------------------------------|
| Oversize allocations  |       0    |       0    |       0    |       0    |
|---------------------------------------------------------------------------|
| Oversize GPU segments |       0    |       0    |       0    |       0    |
|===========================================================================|

test_result:epoch_time:copy_time=25.0007
test_result:convert_time=0.1713
test_result:train_time=6.3438
test_result:epoch_time:train_total=6.5151
test_result:cache_percentage=0.0100
test_result:cache_hit_rate=1.0000
test_result:run_time=146.6167
